# Dane dla problemu minimalizacji terminu realizacji puli projektów

# Zbiory
set TEAMS := A B C D E F;
set PROJECTS := 1 2 3 4 5 6;

# Czasy realizacji projektów przez zespo³y (w miesi¹cach)
param time :  1    2    3    4    5    6   :=
        A    15   20   11   20   13   11
        B    20   12   14   16    20  20
        C    14   16    20  11    17   20
        D    9    20   12   20   13   20
        E    20  10    20  12    20  16
        F    12   20   20  20   15   18;